
%FILE DATA:	Soccer Computational Problem for MiniZinc Models	%
%AUTHOR:	Jack Wall	%
%CONTACT:  	116397063@umail.ucc.ie			%
%LAST UPDATE:	03/19/2020, 20:58:59						%
%DESCRIPTION: 	270 games played with 36 games left				%


n=18; %number of teams

%Games to play
games=[|4,7|1,11|1,15|10,9|14,3|1,9|10,13|18,3|18,1|4,5|7,17|12,1|11,4|11,13|5,9|14,15|2,1|3,7|4,14|2,4|5,7|7,5|10,14|11,14|1,13|3,14|9,1|1,18|4,13|3,4|7,16|9,11|3,12|14,17|7,1|13,6|];

%Initial points
iPoints=[23,45,41,42,40,44,43,36,43,42,30,48,43,38,37,39,46,42];

%POSITION CONSTRAINTS
% [|teamID, operator, position|...]
% operators index:
%  1 for =  operator
%  2 for >  operator
%  3 for >= operator
%  4 for <  operator
%  5 for <= operator
positionConstraints=[|4,3,1|3,2,1|17,3,3|];